% demand
num_movements = 29;
loading_factor = [1100, 800, 1600, 900, 1750, 1300, 1400, 1650, 1850, 800, 1550, 800, 950, 1150, 1500, 1100, 1700, 1550, 1750, 1400, 850, 1700, 1050, 850, 1650, 1950, 2000, 1150, 1300];
pickup_time = [0, 1, 1, 1, 1, 3, 3, 3, 3, 3, 4, 4, 5, 5, 6, 6, 6, 8, 8, 8, 8, 9, 9, 10, 10, 11, 11, 11, 12];
delivery_time = [1, 2, 2, 2, 2, 8, 4, 4, 4, 5, 6, 5, 8, 6, 8, 8, 8, 10, 9, 9, 10, 10, 10, 13, 11, 13, 12, 13, 13];

% transporter definition
total_capacity = 7000;
num_decks = 3;
capacity = [3000, 1000, 3000];

% ways out of decks
num_ways_out = 1;
paths_out = array3d(decks, ways_out, decks, [
% ways out of deck d1
2, 3, 0, 

% ways out of deck d2
3, 0, 0, 

% ways out of deck d3
0, 0, 0,	

]);

